NAME 
OBJSENSE MAX
ROWS
 N  OBJ
 L  packing[0]
 L  packing[1]
 L  packing[2]
 L  packing[3]
 L  packing[4]
 L  packing[5]
 L  packing[6]
 L  packing[7]
 L  packing[8]
 L  packing[9]
 L  packing[10]
 L  packing[11]
 L  packing[12]
 L  packing[13]
 L  packing[14]
 L  packing[15]
 L  packing[16]
 L  packing[17]
 L  packing[18]
 L  packing[19]
 L  packing[20]
 L  packing[21]
 L  packing[22]
 L  packing[23]
 L  packing[24]
 L  packing[25]
 L  packing[26]
 L  packing[27]
 L  packing[28]
 L  packing[29]
 L  packing[30]
 L  packing[31]
 L  packing[32]
 L  packing[33]
 L  packing[34]
 L  packing[35]
 L  packing[36]
 L  packing[37]
 L  packing[38]
 L  packing[39]
 L  packing[40]
 L  packing[41]
 L  packing[42]
 L  packing[43]
 L  packing[44]
 L  packing[45]
 L  packing[46]
 L  packing[47]
 L  packing[48]
 L  packing[49]
 L  R54     
 L  R55     
 L  R56     
 L  R57     
COLUMNS
    MARKER    'MARKER'                 'INTORG'
    x[1]      OBJ       94
    x[1]      packing[0]  56
    x[1]      packing[3]  81
    x[1]      packing[6]  177
    x[1]      packing[9]  32
    x[1]      packing[10]  76
    x[1]      packing[11]  129
    x[1]      packing[12]  1
    x[1]      packing[13]  87
    x[1]      packing[14]  174
    x[1]      packing[15]  131
    x[1]      packing[16]  103
    x[1]      packing[17]  130
    x[1]      packing[18]  191
    x[1]      packing[20]  35
    x[1]      packing[21]  77
    x[1]      packing[23]  151
    x[1]      packing[25]  192
    x[1]      packing[26]  146
    x[1]      packing[28]  155
    x[1]      packing[29]  176
    x[1]      packing[30]  58
    x[1]      packing[31]  24
    x[1]      packing[32]  10
    x[1]      packing[33]  193
    x[1]      packing[34]  182
    x[1]      packing[36]  194
    x[1]      packing[37]  106
    x[1]      packing[39]  1
    x[1]      packing[40]  70
    x[1]      packing[41]  157
    x[1]      packing[42]  122
    x[1]      packing[43]  97
    x[1]      packing[44]  129
    x[1]      packing[46]  91
    x[1]      packing[47]  23
    x[1]      packing[49]  67
    x[1]      R54       1
    x[1]      R55       1
    x[1]      R57       1
    x[2]      OBJ       58
    x[2]      packing[0]  128
    x[2]      packing[1]  178
    x[2]      packing[2]  149
    x[2]      packing[4]  141
    x[2]      packing[5]  186
    x[2]      packing[6]  122
    x[2]      packing[7]  53
    x[2]      packing[9]  197
    x[2]      packing[10]  147
    x[2]      packing[11]  175
    x[2]      packing[12]  161
    x[2]      packing[13]  71
    x[2]      packing[14]  11
    x[2]      packing[15]  7
    x[2]      packing[16]  95
    x[2]      packing[17]  65
    x[2]      packing[18]  38
    x[2]      packing[19]  123
    x[2]      packing[20]  118
    x[2]      packing[21]  159
    x[2]      packing[23]  32
    x[2]      packing[25]  99
    x[2]      packing[26]  177
    x[2]      packing[27]  73
    x[2]      packing[28]  122
    x[2]      packing[29]  75
    x[2]      packing[30]  134
    x[2]      packing[31]  86
    x[2]      packing[32]  51
    x[2]      packing[33]  24
    x[2]      packing[34]  176
    x[2]      packing[35]  163
    x[2]      packing[36]  99
    x[2]      packing[37]  106
    x[2]      packing[38]  89
    x[2]      packing[39]  47
    x[2]      packing[40]  173
    x[2]      packing[42]  157
    x[2]      packing[43]  120
    x[2]      packing[44]  130
    x[2]      packing[45]  100
    x[2]      packing[47]  74
    x[2]      packing[48]  175
    x[2]      packing[49]  180
    x[3]      OBJ       168
    x[3]      packing[0]  52
    x[3]      packing[2]  163
    x[3]      packing[4]  125
    x[3]      packing[6]  182
    x[3]      packing[7]  33
    x[3]      packing[8]  44
    x[3]      packing[10]  180
    x[3]      packing[11]  182
    x[3]      packing[12]  3
    x[3]      packing[13]  77
    x[3]      packing[14]  38
    x[3]      packing[15]  192
    x[3]      packing[16]  61
    x[3]      packing[17]  5
    x[3]      packing[18]  96
    x[3]      packing[19]  4
    x[3]      packing[20]  186
    x[3]      packing[21]  34
    x[3]      packing[23]  59
    x[3]      packing[25]  110
    x[3]      packing[26]  117
    x[3]      packing[27]  74
    x[3]      packing[28]  118
    x[3]      packing[29]  76
    x[3]      packing[30]  110
    x[3]      packing[31]  118
    x[3]      packing[32]  68
    x[3]      packing[33]  112
    x[3]      packing[34]  6
    x[3]      packing[35]  12
    x[3]      packing[36]  12
    x[3]      packing[37]  155
    x[3]      packing[39]  143
    x[3]      packing[41]  50
    x[3]      packing[42]  28
    x[3]      packing[43]  82
    x[3]      packing[45]  43
    x[3]      packing[48]  40
    x[3]      R55       1
    x[3]      R56       1
    x[3]      R57       1
    x[4]      OBJ       91
    x[4]      packing[0]  62
    x[4]      packing[1]  87
    x[4]      packing[2]  105
    x[4]      packing[4]  173
    x[4]      packing[6]  168
    x[4]      packing[7]  26
    x[4]      packing[8]  29
    x[4]      packing[9]  166
    x[4]      packing[10]  79
    x[4]      packing[11]  158
    x[4]      packing[12]  107
    x[4]      packing[13]  6
    x[4]      packing[14]  180
    x[4]      packing[16]  57
    x[4]      packing[18]  104
    x[4]      packing[19]  10
    x[4]      packing[20]  167
    x[4]      packing[21]  199
    x[4]      packing[22]  45
    x[4]      packing[24]  18
    x[4]      packing[25]  138
    x[4]      packing[26]  140
    x[4]      packing[27]  89
    x[4]      packing[28]  98
    x[4]      packing[29]  125
    x[4]      packing[30]  189
    x[4]      packing[31]  103
    x[4]      packing[32]  35
    x[4]      packing[33]  141
    x[4]      packing[34]  59
    x[4]      packing[35]  107
    x[4]      packing[36]  60
    x[4]      packing[37]  185
    x[4]      packing[38]  112
    x[4]      packing[39]  87
    x[4]      packing[40]  108
    x[4]      packing[41]  85
    x[4]      packing[43]  47
    x[4]      packing[44]  142
    x[4]      packing[45]  18
    x[4]      packing[46]  137
    x[4]      packing[47]  13
    x[4]      packing[48]  191
    x[4]      R57       1
    x[5]      OBJ       170
    x[5]      packing[0]  133
    x[5]      packing[1]  85
    x[5]      packing[4]  58
    x[5]      packing[6]  162
    x[5]      packing[7]  3
    x[5]      packing[11]  18
    x[5]      packing[13]  10
    x[5]      packing[14]  125
    x[5]      packing[15]  93
    x[5]      packing[16]  28
    x[5]      packing[17]  78
    x[5]      packing[18]  143
    x[5]      packing[19]  7
    x[5]      packing[20]  131
    x[5]      packing[21]  134
    x[5]      packing[22]  156
    x[5]      packing[23]  79
    x[5]      packing[24]  195
    x[5]      packing[25]  22
    x[5]      packing[26]  187
    x[5]      packing[27]  14
    x[5]      packing[29]  77
    x[5]      packing[30]  140
    x[5]      packing[31]  143
    x[5]      packing[32]  145
    x[5]      packing[33]  167
    x[5]      packing[35]  175
    x[5]      packing[37]  140
    x[5]      packing[38]  83
    x[5]      packing[39]  122
    x[5]      packing[41]  75
    x[5]      packing[43]  175
    x[5]      packing[44]  61
    x[5]      packing[45]  39
    x[5]      packing[46]  198
    x[5]      packing[47]  17
    x[5]      packing[48]  168
    x[5]      R56       1
    x[5]      R57       1
    x[6]      OBJ       40
    x[6]      packing[0]  72
    x[6]      packing[2]  113
    x[6]      packing[3]  41
    x[6]      packing[5]  84
    x[6]      packing[6]  110
    x[6]      packing[7]  92
    x[6]      packing[8]  159
    x[6]      packing[9]  95
    x[6]      packing[11]  122
    x[6]      packing[12]  75
    x[6]      packing[13]  122
    x[6]      packing[15]  79
    x[6]      packing[18]  94
    x[6]      packing[19]  141
    x[6]      packing[20]  108
    x[6]      packing[21]  5
    x[6]      packing[23]  57
    x[6]      packing[24]  180
    x[6]      packing[25]  124
    x[6]      packing[26]  5
    x[6]      packing[27]  61
    x[6]      packing[28]  86
    x[6]      packing[30]  179
    x[6]      packing[31]  107
    x[6]      packing[32]  15
    x[6]      packing[33]  97
    x[6]      packing[34]  31
    x[6]      packing[35]  90
    x[6]      packing[37]  177
    x[6]      packing[38]  175
    x[6]      packing[39]  52
    x[6]      packing[42]  103
    x[6]      packing[44]  74
    x[6]      packing[45]  12
    x[6]      packing[46]  184
    x[6]      packing[47]  8
    x[6]      packing[48]  86
    x[7]      OBJ       101
    x[7]      packing[0]  131
    x[7]      packing[1]  111
    x[7]      packing[3]  174
    x[7]      packing[4]  5
    x[7]      packing[5]  119
    x[7]      packing[6]  32
    x[7]      packing[7]  72
    x[7]      packing[8]  95
    x[7]      packing[9]  195
    x[7]      packing[10]  156
    x[7]      packing[11]  39
    x[7]      packing[12]  111
    x[7]      packing[13]  109
    x[7]      packing[14]  89
    x[7]      packing[15]  148
    x[7]      packing[17]  103
    x[7]      packing[18]  196
    x[7]      packing[20]  148
    x[7]      packing[21]  170
    x[7]      packing[22]  18
    x[7]      packing[23]  33
    x[7]      packing[24]  112
    x[7]      packing[26]  199
    x[7]      packing[27]  151
    x[7]      packing[28]  42
    x[7]      packing[29]  82
    x[7]      packing[30]  199
    x[7]      packing[31]  181
    x[7]      packing[32]  182
    x[7]      packing[33]  109
    x[7]      packing[35]  71
    x[7]      packing[36]  75
    x[7]      packing[37]  55
    x[7]      packing[38]  82
    x[7]      packing[39]  81
    x[7]      packing[41]  56
    x[7]      packing[43]  167
    x[7]      packing[44]  22
    x[7]      packing[45]  130
    x[7]      packing[47]  102
    x[7]      packing[48]  189
    x[7]      packing[49]  93
    x[7]      R54       1
    x[7]      R56       1
    x[8]      OBJ       58
    x[8]      packing[0]  68
    x[8]      packing[1]  199
    x[8]      packing[2]  183
    x[8]      packing[4]  187
    x[8]      packing[6]  126
    x[8]      packing[7]  122
    x[8]      packing[10]  39
    x[8]      packing[11]  157
    x[8]      packing[12]  30
    x[8]      packing[13]  144
    x[8]      packing[14]  115
    x[8]      packing[15]  131
    x[8]      packing[16]  45
    x[8]      packing[17]  24
    x[8]      packing[18]  112
    x[8]      packing[19]  50
    x[8]      packing[20]  141
    x[8]      packing[21]  55
    x[8]      packing[22]  60
    x[8]      packing[23]  94
    x[8]      packing[26]  109
    x[8]      packing[27]  106
    x[8]      packing[29]  110
    x[8]      packing[31]  22
    x[8]      packing[32]  168
    x[8]      packing[33]  99
    x[8]      packing[34]  172
    x[8]      packing[36]  38
    x[8]      packing[37]  154
    x[8]      packing[38]  86
    x[8]      packing[39]  179
    x[8]      packing[41]  160
    x[8]      packing[42]  23
    x[8]      packing[44]  21
    x[8]      packing[46]  30
    x[8]      packing[47]  42
    x[8]      packing[49]  114
    x[9]      OBJ       115
    x[9]      packing[0]  154
    x[9]      packing[2]  29
    x[9]      packing[3]  148
    x[9]      packing[5]  34
    x[9]      packing[6]  155
    x[9]      packing[7]  68
    x[9]      packing[8]  68
    x[9]      packing[10]  127
    x[9]      packing[11]  134
    x[9]      packing[13]  181
    x[9]      packing[14]  12
    x[9]      packing[15]  38
    x[9]      packing[16]  80
    x[9]      packing[17]  173
    x[9]      packing[18]  22
    x[9]      packing[19]  61
    x[9]      packing[21]  29
    x[9]      packing[25]  54
    x[9]      packing[26]  60
    x[9]      packing[27]  118
    x[9]      packing[28]  127
    x[9]      packing[29]  161
    x[9]      packing[30]  43
    x[9]      packing[31]  61
    x[9]      packing[33]  178
    x[9]      packing[35]  110
    x[9]      packing[37]  194
    x[9]      packing[38]  40
    x[9]      packing[39]  5
    x[9]      packing[41]  4
    x[9]      packing[42]  64
    x[9]      packing[43]  55
    x[9]      packing[44]  64
    x[9]      packing[45]  42
    x[9]      packing[46]  9
    x[9]      packing[47]  10
    x[9]      packing[48]  61
    x[9]      packing[49]  62
    x[9]      R54       1
    x[9]      R55       1
    x[9]      R57       1
    x[10]     OBJ       52
    x[10]     packing[1]  13
    x[10]     packing[2]  160
    x[10]     packing[3]  127
    x[10]     packing[4]  148
    x[10]     packing[5]  52
    x[10]     packing[6]  120
    x[10]     packing[7]  120
    x[10]     packing[10]  88
    x[10]     packing[11]  25
    x[10]     packing[12]  20
    x[10]     packing[13]  87
    x[10]     packing[14]  120
    x[10]     packing[15]  164
    x[10]     packing[16]  7
    x[10]     packing[17]  152
    x[10]     packing[18]  81
    x[10]     packing[20]  83
    x[10]     packing[21]  88
    x[10]     packing[22]  127
    x[10]     packing[23]  81
    x[10]     packing[24]  86
    x[10]     packing[25]  173
    x[10]     packing[26]  66
    x[10]     packing[27]  12
    x[10]     packing[28]  59
    x[10]     packing[29]  183
    x[10]     packing[30]  11
    x[10]     packing[31]  12
    x[10]     packing[32]  84
    x[10]     packing[33]  60
    x[10]     packing[34]  152
    x[10]     packing[35]  68
    x[10]     packing[36]  28
    x[10]     packing[37]  85
    x[10]     packing[38]  82
    x[10]     packing[39]  3
    x[10]     packing[40]  127
    x[10]     packing[41]  8
    x[10]     packing[42]  59
    x[10]     packing[43]  43
    x[10]     packing[44]  29
    x[10]     packing[45]  133
    x[10]     packing[46]  21
    x[10]     packing[47]  25
    x[10]     packing[48]  35
    x[10]     packing[49]  188
    x[11]     OBJ       139
    x[11]     packing[1]  175
    x[11]     packing[2]  160
    x[11]     packing[3]  37
    x[11]     packing[5]  157
    x[11]     packing[6]  120
    x[11]     packing[7]  84
    x[11]     packing[8]  47
    x[11]     packing[9]  196
    x[11]     packing[10]  195
    x[11]     packing[11]  106
    x[11]     packing[12]  167
    x[11]     packing[13]  38
    x[11]     packing[14]  188
    x[11]     packing[15]  199
    x[11]     packing[16]  111
    x[11]     packing[17]  185
    x[11]     packing[18]  159
    x[11]     packing[19]  34
    x[11]     packing[21]  28
    x[11]     packing[23]  178
    x[11]     packing[24]  64
    x[11]     packing[25]  72
    x[11]     packing[26]  195
    x[11]     packing[27]  17
    x[11]     packing[28]  124
    x[11]     packing[32]  82
    x[11]     packing[34]  105
    x[11]     packing[35]  24
    x[11]     packing[36]  113
    x[11]     packing[37]  50
    x[11]     packing[38]  191
    x[11]     packing[39]  170
    x[11]     packing[40]  163
    x[11]     packing[41]  66
    x[11]     packing[42]  96
    x[11]     packing[43]  8
    x[11]     packing[44]  185
    x[11]     packing[46]  187
    x[11]     packing[47]  62
    x[11]     packing[48]  67
    x[11]     packing[49]  73
    x[12]     OBJ       2
    x[12]     packing[1]  75
    x[12]     packing[2]  56
    x[12]     packing[4]  21
    x[12]     packing[5]  72
    x[12]     packing[6]  125
    x[12]     packing[9]  126
    x[12]     packing[10]  199
    x[12]     packing[11]  14
    x[12]     packing[13]  94
    x[12]     packing[15]  20
    x[12]     packing[20]  163
    x[12]     packing[21]  87
    x[12]     packing[22]  20
    x[12]     packing[24]  176
    x[12]     packing[25]  190
    x[12]     packing[26]  154
    x[12]     packing[28]  152
    x[12]     packing[30]  13
    x[12]     packing[31]  106
    x[12]     packing[33]  171
    x[12]     packing[34]  53
    x[12]     packing[36]  181
    x[12]     packing[37]  138
    x[12]     packing[38]  109
    x[12]     packing[39]  15
    x[12]     packing[40]  195
    x[12]     packing[41]  113
    x[12]     packing[42]  96
    x[12]     packing[45]  57
    x[12]     packing[47]  54
    x[12]     packing[49]  37
    x[13]     OBJ       26
    x[13]     packing[0]  82
    x[13]     packing[2]  199
    x[13]     packing[3]  49
    x[13]     packing[4]  174
    x[13]     packing[6]  13
    x[13]     packing[8]  42
    x[13]     packing[9]  130
    x[13]     packing[10]  173
    x[13]     packing[11]  156
    x[13]     packing[12]  109
    x[13]     packing[13]  120
    x[13]     packing[14]  15
    x[13]     packing[16]  92
    x[13]     packing[17]  83
    x[13]     packing[19]  159
    x[13]     packing[20]  191
    x[13]     packing[22]  77
    x[13]     packing[23]  192
    x[13]     packing[25]  78
    x[13]     packing[26]  146
    x[13]     packing[28]  26
    x[13]     packing[29]  25
    x[13]     packing[30]  173
    x[13]     packing[32]  10
    x[13]     packing[33]  177
    x[13]     packing[34]  186
    x[13]     packing[35]  107
    x[13]     packing[36]  185
    x[13]     packing[38]  127
    x[13]     packing[39]  118
    x[13]     packing[40]  94
    x[13]     packing[43]  79
    x[13]     packing[45]  20
    x[13]     packing[47]  140
    x[14]     OBJ       113
    x[14]     packing[0]  12
    x[14]     packing[1]  48
    x[14]     packing[2]  160
    x[14]     packing[4]  87
    x[14]     packing[5]  176
    x[14]     packing[6]  72
    x[14]     packing[7]  70
    x[14]     packing[8]  190
    x[14]     packing[10]  58
    x[14]     packing[14]  198
    x[14]     packing[15]  14
    x[14]     packing[17]  104
    x[14]     packing[18]  139
    x[14]     packing[19]  44
    x[14]     packing[21]  64
    x[14]     packing[22]  168
    x[14]     packing[23]  32
    x[14]     packing[24]  166
    x[14]     packing[25]  183
    x[14]     packing[26]  129
    x[14]     packing[27]  79
    x[14]     packing[29]  81
    x[14]     packing[30]  94
    x[14]     packing[31]  37
    x[14]     packing[32]  5
    x[14]     packing[33]  48
    x[14]     packing[35]  126
    x[14]     packing[36]  75
    x[14]     packing[37]  143
    x[14]     packing[38]  133
    x[14]     packing[40]  73
    x[14]     packing[41]  82
    x[14]     packing[42]  125
    x[14]     packing[43]  156
    x[14]     packing[46]  169
    x[14]     packing[47]  66
    x[14]     packing[48]  73
    x[14]     packing[49]  33
    x[15]     OBJ       175
    x[15]     packing[0]  63
    x[15]     packing[1]  70
    x[15]     packing[2]  161
    x[15]     packing[3]  63
    x[15]     packing[4]  45
    x[15]     packing[5]  162
    x[15]     packing[6]  107
    x[15]     packing[9]  119
    x[15]     packing[11]  40
    x[15]     packing[12]  126
    x[15]     packing[13]  84
    x[15]     packing[14]  156
    x[15]     packing[15]  181
    x[15]     packing[16]  40
    x[15]     packing[17]  117
    x[15]     packing[18]  71
    x[15]     packing[19]  120
    x[15]     packing[20]  142
    x[15]     packing[22]  196
    x[15]     packing[23]  174
    x[15]     packing[24]  64
    x[15]     packing[25]  31
    x[15]     packing[26]  187
    x[15]     packing[27]  196
    x[15]     packing[29]  12
    x[15]     packing[30]  185
    x[15]     packing[31]  169
    x[15]     packing[32]  102
    x[15]     packing[33]  37
    x[15]     packing[35]  141
    x[15]     packing[36]  65
    x[15]     packing[38]  30
    x[15]     packing[39]  51
    x[15]     packing[40]  126
    x[15]     packing[41]  139
    x[15]     packing[42]  99
    x[15]     packing[43]  133
    x[15]     packing[44]  57
    x[15]     packing[45]  33
    x[15]     packing[46]  8
    x[15]     packing[47]  138
    x[15]     packing[48]  184
    x[15]     packing[49]  184
    x[16]     OBJ       67
    x[16]     packing[0]  19
    x[16]     packing[1]  17
    x[16]     packing[2]  69
    x[16]     packing[3]  122
    x[16]     packing[4]  180
    x[16]     packing[5]  119
    x[16]     packing[6]  13
    x[16]     packing[7]  103
    x[16]     packing[8]  153
    x[16]     packing[9]  108
    x[16]     packing[10]  33
    x[16]     packing[11]  84
    x[16]     packing[12]  148
    x[16]     packing[15]  20
    x[16]     packing[16]  157
    x[16]     packing[17]  80
    x[16]     packing[18]  71
    x[16]     packing[20]  135
    x[16]     packing[23]  168
    x[16]     packing[24]  54
    x[16]     packing[25]  194
    x[16]     packing[26]  114
    x[16]     packing[27]  165
    x[16]     packing[28]  8
    x[16]     packing[29]  133
    x[16]     packing[35]  140
    x[16]     packing[36]  183
    x[16]     packing[37]  164
    x[16]     packing[38]  154
    x[16]     packing[39]  3
    x[16]     packing[40]  139
    x[16]     packing[41]  195
    x[16]     packing[42]  15
    x[16]     packing[43]  178
    x[16]     packing[48]  193
    x[16]     packing[49]  3
    x[17]     OBJ       80
    x[17]     packing[1]  39
    x[17]     packing[2]  99
    x[17]     packing[3]  17
    x[17]     packing[4]  37
    x[17]     packing[7]  23
    x[17]     packing[8]  128
    x[17]     packing[10]  34
    x[17]     packing[12]  119
    x[17]     packing[13]  171
    x[17]     packing[18]  19
    x[17]     packing[19]  71
    x[17]     packing[21]  190
    x[17]     packing[24]  5
    x[17]     packing[25]  172
    x[17]     packing[26]  21
    x[17]     packing[27]  138
    x[17]     packing[28]  141
    x[17]     packing[30]  135
    x[17]     packing[31]  195
    x[17]     packing[34]  127
    x[17]     packing[35]  130
    x[17]     packing[36]  152
    x[17]     packing[37]  121
    x[17]     packing[38]  159
    x[17]     packing[39]  176
    x[17]     packing[40]  62
    x[17]     packing[41]  129
    x[17]     packing[43]  62
    x[17]     packing[44]  146
    x[17]     packing[45]  26
    x[17]     packing[46]  166
    x[17]     packing[47]  16
    x[17]     packing[48]  123
    x[17]     packing[49]  84
    x[18]     OBJ       177
    x[18]     packing[2]  186
    x[18]     packing[3]  160
    x[18]     packing[4]  148
    x[18]     packing[5]  168
    x[18]     packing[7]  129
    x[18]     packing[8]  97
    x[18]     packing[9]  120
    x[18]     packing[10]  59
    x[18]     packing[11]  51
    x[18]     packing[12]  106
    x[18]     packing[13]  171
    x[18]     packing[14]  85
    x[18]     packing[15]  33
    x[18]     packing[16]  160
    x[18]     packing[19]  121
    x[18]     packing[20]  108
    x[18]     packing[21]  112
    x[18]     packing[22]  157
    x[18]     packing[23]  68
    x[18]     packing[24]  52
    x[18]     packing[25]  195
    x[18]     packing[26]  93
    x[18]     packing[27]  10
    x[18]     packing[28]  146
    x[18]     packing[30]  57
    x[18]     packing[32]  68
    x[18]     packing[34]  81
    x[18]     packing[35]  29
    x[18]     packing[37]  142
    x[18]     packing[38]  23
    x[18]     packing[39]  192
    x[18]     packing[41]  96
    x[18]     packing[43]  9
    x[18]     packing[46]  161
    x[18]     packing[47]  71
    x[18]     packing[48]  142
    x[18]     R54       1
    x[18]     R55       1
    x[18]     R56       1
    x[19]     OBJ       146
    x[19]     packing[0]  68
    x[19]     packing[1]  33
    x[19]     packing[2]  81
    x[19]     packing[3]  36
    x[19]     packing[7]  191
    x[19]     packing[8]  75
    x[19]     packing[9]  127
    x[19]     packing[10]  12
    x[19]     packing[13]  135
    x[19]     packing[14]  22
    x[19]     packing[15]  163
    x[19]     packing[16]  76
    x[19]     packing[18]  161
    x[19]     packing[19]  180
    x[19]     packing[20]  180
    x[19]     packing[22]  68
    x[19]     packing[23]  127
    x[19]     packing[24]  72
    x[19]     packing[25]  82
    x[19]     packing[26]  87
    x[19]     packing[27]  112
    x[19]     packing[29]  112
    x[19]     packing[30]  106
    x[19]     packing[31]  53
    x[19]     packing[32]  191
    x[19]     packing[33]  156
    x[19]     packing[34]  10
    x[19]     packing[36]  136
    x[19]     packing[38]  36
    x[19]     packing[39]  74
    x[19]     packing[43]  198
    x[19]     packing[44]  125
    x[19]     packing[45]  109
    x[19]     packing[47]  40
    x[19]     packing[48]  144
    x[19]     packing[49]  190
    x[19]     R55       1
    x[19]     R56       1
    x[19]     R57       1
    x[20]     OBJ       139
    x[20]     packing[1]  148
    x[20]     packing[2]  16
    x[20]     packing[3]  51
    x[20]     packing[4]  127
    x[20]     packing[5]  156
    x[20]     packing[6]  13
    x[20]     packing[7]  73
    x[20]     packing[9]  35
    x[20]     packing[10]  170
    x[20]     packing[11]  159
    x[20]     packing[12]  107
    x[20]     packing[13]  89
    x[20]     packing[16]  186
    x[20]     packing[18]  161
    x[20]     packing[19]  85
    x[20]     packing[21]  12
    x[20]     packing[22]  153
    x[20]     packing[23]  64
    x[20]     packing[24]  20
    x[20]     packing[25]  83
    x[20]     packing[26]  170
    x[20]     packing[27]  44
    x[20]     packing[28]  187
    x[20]     packing[29]  176
    x[20]     packing[30]  139
    x[20]     packing[31]  20
    x[20]     packing[33]  119
    x[20]     packing[34]  40
    x[20]     packing[35]  84
    x[20]     packing[36]  133
    x[20]     packing[37]  159
    x[20]     packing[38]  74
    x[20]     packing[39]  62
    x[20]     packing[40]  155
    x[20]     packing[41]  38
    x[20]     packing[42]  86
    x[20]     packing[43]  94
    x[20]     packing[45]  103
    x[20]     packing[46]  57
    x[20]     packing[48]  181
    x[20]     R55       1
    MARKER    'MARKER'                 'INTEND'
RHS
    RHS1      packing[0]  550
    RHS1      packing[1]  639
    RHS1      packing[2]  1045
    RHS1      packing[3]  553
    RHS1      packing[4]  828
    RHS1      packing[5]  743
    RHS1      packing[6]  909
    RHS1      packing[7]  631
    RHS1      packing[8]  564
    RHS1      packing[9]  823
    RHS1      packing[10]  913
    RHS1      packing[11]  875
    RHS1      packing[12]  695
    RHS1      packing[13]  898
    RHS1      packing[14]  764
    RHS1      packing[15]  807
    RHS1      packing[16]  649
    RHS1      packing[17]  650
    RHS1      packing[18]  929
    RHS1      packing[19]  605
    RHS1      packing[20]  1018
    RHS1      packing[21]  722
    RHS1      packing[22]  623
    RHS1      packing[23]  795
    RHS1      packing[24]  632
    RHS1      packing[25]  1096
    RHS1      packing[26]  1251
    RHS1      packing[27]  730
    RHS1      packing[28]  796
    RHS1      packing[29]  802
    RHS1      packing[30]  983
    RHS1      packing[31]  719
    RHS1      packing[32]  608
    RHS1      packing[33]  944
    RHS1      packing[34]  690
    RHS1      packing[35]  789
    RHS1      packing[36]  865
    RHS1      packing[37]  1137
    RHS1      packing[38]  893
    RHS1      packing[39]  791
    RHS1      packing[40]  743
    RHS1      packing[41]  727
    RHS1      packing[42]  537
    RHS1      packing[43]  852
    RHS1      packing[44]  593
    RHS1      packing[45]  433
    RHS1      packing[46]  709
    RHS1      packing[47]  451
    RHS1      packing[48]  1026
    RHS1      packing[49]  654
    RHS1      R54       3
    RHS1      R55       5
    RHS1      R56       4
    RHS1      R57       5
BOUNDS
 BV BND1      x[1]    
 BV BND1      x[2]    
 BV BND1      x[3]    
 BV BND1      x[4]    
 BV BND1      x[5]    
 BV BND1      x[6]    
 BV BND1      x[7]    
 BV BND1      x[8]    
 BV BND1      x[9]    
 BV BND1      x[10]   
 BV BND1      x[11]   
 BV BND1      x[12]   
 BV BND1      x[13]   
 BV BND1      x[14]   
 BV BND1      x[15]   
 BV BND1      x[16]   
 BV BND1      x[17]   
 BV BND1      x[18]   
 BV BND1      x[19]   
 BV BND1      x[20]   
ENDATA
